p cnf 1328 1330
c ind 856 857 858 871 878 904 965 966 979 986 0
c ind 990 992 995 1011 1013 1016 1028 1029 1048 1050 0
c ind 1054 1065 1066 1070 1071 1072 1076 1078 849 964 0
c ind 879 891 850 851 963 854 855 962 1281 1282 0
c ind 1280 1279 1277 1278 1276 1271 1275 1274 1273 1272 0
c ind 1269 1270 1313 1304 1318 1295 1309 1299 1326 1312 0
c ind 1303 1317 1294 1308 1298 1325 1268 1263 1267 1266 0
c ind 1265 1264 1311 1302 1316 1293 1307 1297 1324 1310 0
c ind 1301 1315 1292 1306 1296 1323 1287 1291 1321 1261 0
c ind 1262 1254 1255 1260 1259 1258 1257 1289 1319 1256 0
c ind 1320 1290 1252 1253 1251 1300 1314 1305 1322 1250 0
c ind 852 853 1248 1249 1247 1242 1246 1245 1244 1243 0
c ind 1240 1241 1239 1234 1238 1237 1236 1235 1288 1232 0
c ind 1233 1225 1226 1231 1284 1230 1229 1228 1227 1223 0
c ind 1224 1222 1285 1221 1219 1220 1218 1213 1217 1216 0
c ind 1215 1214 1211 1212 1210 1205 1209 1208 1207 1206 0
c ind 1203 1204 1196 1197 1202 1201 1200 1199 1198 1194 0
c ind 1195 1286 1193 1192 1283 1190 1191 1189 1184 1188 0
c ind 1187 1186 1185 1182 1183 1181 1176 1180 1179 1178 0
c ind 1177 1174 1175 1167 1168 1173 1172 1171 1170 1169 0
c ind 1165 1166 1164 1163 1161 1162 1160 1155 1159 1158 0
c ind 1157 1156 1153 1154 1152 1147 1151 1150 1149 1148 0
c ind 1145 1146 1138 1139 1144 1143 1142 1141 1140 1136 0
c ind 1137 1135 1134 1132 1133 1131 1126 1130 1129 1128 0
c ind 1127 1124 1125 1123 1118 1122 1121 1120 1119 1116 0
c ind 1117 1109 1110 1115 1114 1113 1112 1111 1107 1108 0
c ind 1106 1105 1103 1104 1102 1097 1101 1100 1099 1098 0
c ind 1095 1096 1094 1089 1093 1092 1091 1090 1087 1088 0
c ind 1080 1081 1086 1085 1084 1083 1082 1060 1061 1059 0
c ind 1058 1057 1079 1069 1067 1068 1056 1055 1077 1064 0
c ind 1053 1075 1073 1074 1062 1063 1052 1051 1044 861 0
c ind 1049 1047 1045 1046 1043 1036 1035 1042 1041 1040 0
c ind 1039 1038 1037 1034 1033 1032 1031 1030 848 1023 0
c ind 1022 1020 1021 1019 1018 1024 1025 1017 1015 1026 0
c ind 1014 1027 1012 969 1010 1008 1009 1007 1006 1005 0
c ind 1004 1003 1002 1001 999 1000 998 997 996 994 0
c ind 993 991 989 987 988 985 980 984 981 982 0
c ind 976 983 978 974 975 977 973 968 972 970 0
c ind 971 967 961 954 946 960 959 958 957 940 0
c ind 939 938 956 937 955 936 935 934 953 952 0
c ind 951 950 949 948 947 945 944 943 942 941 0
c ind 933 926 918 932 931 930 929 912 911 910 0
c ind 928 909 927 908 907 906 925 924 923 922 0
c ind 921 920 919 917 916 915 914 913 905 903 0
c ind 901 902 892 893 900 899 898 897 896 894 0
c ind 895 888 887 889 890 886 885 884 883 881 0
c ind 882 880 877 876 872 873 874 875 868 870 0
c ind 867 866 869 860 865 859 864 862 863 1 0
c ret 616 617 618 619 620 621 622 623 624 625 0
c ret 626 627 628 629 630 631 632 633 634 635 0
c ret 636 637 638 639 640 641 642 643 644 645 0
c ret 646 647 648 649 650 651 652 653 654 655 0
c ret 656 657 658 659 660 661 662 663 664 665 0
c ret 666 667 668 669 670 671 672 673 674 675 0
c ret 676 677 678 679 680 681 682 683 684 685 0
c ret 686 687 688 689 690 691 692 693 694 695 0
c ret 696 697 698 699 700 701 702 703 704 705 0
c ret 706 707 708 709 710 711 712 713 714 715 0
c ret 716 717 718 719 720 721 722 723 724 725 0
c ret 726 727 728 729 730 731 732 733 734 735 0
c ret 736 737 738 739 740 741 742 743 744 745 0
c ret 746 747 748 749 750 751 752 753 754 755 0
c ret 756 757 758 759 760 761 762 763 764 765 0
c ret 766 767 768 769 770 771 772 773 774 775 0
c ret 776 777 778 779 780 781 782 783 784 785 0
c ret 786 787 788 789 790 791 792 793 794 795 0
c ret 796 797 798 799 800 801 802 803 804 805 0
c ret 806 807 808 809 311 810 811 317 318 319 0
c ret 320 812 321 322 323 324 325 326 327 328 0
c ret 329 330 331 332 333 334 335 336 337 338 0
c ret 339 340 341 342 813 814 343 344 345 815 0
c ret 346 816 347 348 349 350 351 352 353 312 0
c ret 354 355 356 357 358 359 360 361 362 363 0
c ret 817 818 364 365 819 366 820 367 368 369 0
c ret 370 371 372 373 374 375 376 377 378 379 0
c ret 380 821 381 382 383 384 385 386 387 822 0
c ret 823 388 824 389 825 390 391 392 393 394 0
c ret 313 395 396 397 398 399 400 401 402 403 0
c ret 826 404 405 406 407 408 827 409 828 410 0
c ret 411 412 413 829 830 414 415 416 417 418 0
c ret 419 420 421 422 423 424 425 426 427 428 0
c ret 831 429 832 430 431 432 833 433 834 434 0
c ret 314 435 436 437 438 439 440 441 442 443 0
c ret 444 445 446 447 835 448 449 450 836 451 0
c ret 837 452 453 838 839 454 455 456 457 458 0
c ret 459 460 461 462 463 464 465 840 841 466 0
c ret 467 468 469 842 470 471 472 473 474 475 0
c ret 476 477 478 479 480 481 482 483 484 843 0
c ret 485 486 487 488 844 489 845 490 846 847 0
c ret 491 492 493 494 495 496 497 498 499 500 0
c ret 501 502 503 504 505 315 506 507 508 509 0
c ret 510 511 512 513 514 515 516 517 518 519 0
c ret 520 521 522 523 524 525 526 527 528 529 0
c ret 530 531 532 533 534 535 536 537 538 539 0
c ret 540 541 542 543 544 316 545 546 547 548 0
c ret 549 550 551 552 553 554 555 556 557 558 0
c ret 559 560 561 562 563 564 565 566 567 568 0
c ret 569 570 571 572 573 574 575 576 577 578 0
c ret 579 580 581 582 583 584 585 586 587 588 0
c ret 589 590 591 592 593 594 595 596 597 598 0
c ret 599 600 601 602 603 604 605 606 607 608 0
c ret 609 610 611 612 613 614 615 0
2 141 306 -307 0
2 3 306 -307 0
-2 307 0
-2 -306 0
-2 -3 -141 0
3 -4 -64 -131 0
3 4 64 121 0
3 4 64 -131 0
3 -4 -64 121 0
-3 4 -64 0
-3 -4 64 0
-3 -121 131 0
4 -5 -21 0
4 -5 58 0
-4 5 0
-4 21 -58 0
5 6 13 -19 0
-5 19 0
-5 -13 0
-5 -6 0
6 -7 -8 0
6 -8 -11 0
-6 8 0
-6 7 11 0
7 1109 0
7 -1110 -1116 0
7 1110 -1117 0
-7 -1109 1110 1117 0
-7 -1109 -1110 1116 0
8 -9 -10 0
-7 8 -10 0
-8 10 0
7 -8 9 0
9 1118 1125 0
9 -1118 1124 0
-9 -1118 -1124 0
-9 1118 -1125 0
10 1109 0
10 -1110 1116 0
10 1110 1117 0
-10 -1109 1110 -1117 0
-10 -1109 -1110 -1116 0
11 12 0
-11 -12 0
7 12 -1118 1124 0
7 12 1118 1125 0
-7 -12 0
-12 1118 -1125 0
-12 -1118 -1124 0
13 -15 -16 0
13 -14 -16 0
-13 16 0
-13 14 15 0
14 1080 0
14 -1081 -1087 0
14 1081 -1088 0
-14 -1080 1081 1088 0
-14 -1080 -1081 1087 0
-14 15 0
15 -1089 1095 0
15 1089 1096 0
14 -15 -1089 -1095 0
14 -15 1089 -1096 0
16 -17 -18 0
-14 16 -18 0
-16 18 0
14 -16 17 0
-14 17 0
17 1089 -1096 0
17 -1089 -1095 0
14 -17 -1089 1095 0
14 -17 1089 1096 0
18 1080 0
18 -1081 1087 0
18 1081 1088 0
-18 -1080 1081 -1088 0
-18 -1080 -1081 -1087 0
19 -20 -1138 -1167 -1196 0
-19 20 0
-19 1138 0
-19 1196 0
-19 1167 0
20 -1225 -1254 0
-20 1225 0
-20 1254 0
21 -22 -57 -1304 0
21 22 -23 -57 0
-21 57 0
-21 -22 1304 0
-21 22 23 0
22 1075 -1077 0
-22 -1075 0
-22 1077 0
23 -24 -1303 0
23 24 -25 0
-23 -24 1303 0
-23 24 25 0
24 1047 -1049 0
-24 -1047 0
-24 1049 0
25 26 49 56 0
25 26 49 -52 0
-25 -26 0
-25 -49 0
-25 52 -56 0
26 -47 848 -1023 0
26 27 848 1023 0
-26 -848 0
-26 47 -1023 0
-26 -27 1023 0
27 -28 -1300 0
-27 1300 0
-27 28 0
28 -29 43 0
-28 29 0
-28 -43 0
29 -36 37 0
29 30 37 -913 0
-29 -37 0
-29 -30 36 0
-29 36 913 0
30 31 0
30 34 -912 0
30 34 918 0
-30 -31 -34 0
-30 -31 912 -918 0
31 -32 33 -906 -913 0
-31 32 0
-31 -33 0
-31 906 0
-31 913 0
32 907 908 909 0
-32 -907 0
-32 -909 0
-32 -908 0
33 910 -911 0
-33 -910 0
-33 911 0
34 35 912 918 -919 0
-34 -912 0
-34 -35 0
-34 919 0
-34 -918 0
35 926 927 0
-35 -926 0
-35 -927 0
32 36 -906 0
33 36 -906 -912 0
-36 906 0
-32 -36 912 0
-32 -33 -36 0
37 39 42 0
37 39 -41 0
37 38 39 0
-37 -39 0
-37 -38 41 -42 0
38 935 936 937 0
-38 -935 0
-38 -937 0
-38 -936 0
38 39 -934 0
39 40 -934 -940 0
-39 934 0
-38 -39 940 0
-38 -39 -40 0
40 938 -939 0
-40 -938 0
-40 939 0
41 946 947 0
41 946 954 955 0
-41 -946 0
-41 -947 -954 0
-41 -947 -955 0
40 42 -934 940 -941 0
-42 941 0
-40 -42 0
-42 934 0
-42 -940 0
43 -44 -880 0
43 -46 -880 0
43 -45 -880 0
-43 880 0
-43 44 45 46 0
44 -881 882 883 0
-44 881 0
-44 -883 0
-44 -882 0
45 886 889 890 0
-45 -886 0
-45 -890 0
-45 -889 0
46 -886 887 888 0
-46 886 0
-46 -888 0
-46 -887 0
47 -48 1301 0
27 47 48 0
-47 -48 -1301 0
-27 -47 48 0
48 989 -991 0
-48 -989 0
-48 991 0
49 -50 -51 -1033 0
49 -50 -51 -1034 0
-49 51 0
-49 50 0
-49 1033 1034 0
50 1036 1037 1038 1039 0
-50 -1039 0
-50 -1038 0
-50 -1036 0
-50 -1037 0
51 -1030 -1031 -1032 1035 0
-51 1032 0
-51 -1035 0
-51 1030 0
-51 1031 0
47 52 -53 0
-47 -52 0
-52 53 0
53 54 55 0
-53 -54 0
-53 -55 0
54 1010 -1012 0
-54 -1010 0
-54 1012 0
55 1002 1003 1004 0
-55 -1002 0
-55 -1004 0
-55 -1003 0
54 56 -848 0
56 -848 1302 0
-56 848 0
-54 -56 -1302 0
57 -1044 1051 0
-57 1044 0
-57 -1051 0
58 -59 -1044 0
23 25 58 0
23 58 -1044 0
25 58 -59 0
-25 -58 1044 0
-23 -58 59 0
59 61 1051 0
59 -60 61 0
59 61 1044 0
-59 -61 0
-59 60 -1044 -1051 0
60 -1052 1053 0
-60 1052 0
-60 -1053 0
61 62 -63 0
-61 -62 0
-61 63 0
62 1055 -1056 -1057 1058 0
-62 -1055 0
-62 -1058 0
-62 1057 0
-62 1056 0
63 -1044 -1051 -1052 1053 0
-63 1052 0
-63 -1053 0
-63 1044 0
-63 1051 0
64 -65 -76 0
64 -65 115 0
-64 65 0
-64 76 -115 0
65 66 -72 0
-65 -66 0
-65 72 0
66 -68 -69 0
66 -67 -69 0
-66 69 0
-66 67 68 0
67 543 0
67 -544 -550 0
67 544 -551 0
-67 -543 544 551 0
-67 -543 -544 550 0
-67 68 0
68 -552 558 0
68 552 559 0
67 -68 -552 -558 0
67 -68 552 -559 0
-67 69 -70 0
69 -70 -71 0
-69 70 0
67 -69 71 0
70 543 0
70 -544 550 0
70 544 551 0
-70 -543 544 -551 0
-70 -543 -544 -550 0
-67 71 0
71 552 -559 0
71 -552 -558 0
67 -71 -552 558 0
67 -71 552 559 0
72 -73 -74 -75 0
-72 73 0
-72 74 0
-72 75 0
73 -572 -746 -775 0
-73 572 0
-73 746 0
-73 775 0
74 -630 -659 0
-74 630 0
-74 659 0
75 -601 -688 -717 0
-75 601 0
-75 688 0
-75 717 0
76 -77 -114 -825 0
76 77 -78 -114 0
-76 114 0
-76 -77 825 0
-76 77 78 0
77 538 -540 0
-77 -538 0
-77 540 0
78 -79 -824 0
78 79 -80 0
-78 -79 824 0
-78 79 80 0
79 510 -512 0
-79 -510 0
-79 512 0
80 81 106 113 0
80 81 106 -109 0
-80 -81 0
-80 -106 0
-80 109 -113 0
81 -104 311 -486 0
81 82 311 486 0
-81 -311 0
-81 104 -486 0
-81 -82 486 0
82 -83 -821 0
-82 821 0
-82 83 0
83 84 -88 0
-83 -84 0
-83 88 0
84 -85 -343 0
84 -87 -343 0
84 -86 -343 0
-84 343 0
-84 85 86 87 0
85 -344 345 346 0
-85 344 0
-85 -346 0
-85 -345 0
86 349 352 353 0
-86 -349 0
-86 -353 0
-86 -352 0
87 -349 350 351 0
-87 349 0
-87 -351 0
-87 -350 0
88 89 -96 0
88 89 99 -376 0
-88 -89 0
-88 96 -99 0
-88 96 376 0
89 -90 93 0
89 93 397 0
-89 -93 0
-89 90 -397 0
90 -92 400 403 0
90 -91 -92 400 0
-90 -400 0
-90 92 0
-90 91 -403 0
91 401 -402 0
-91 -401 0
-91 402 0
92 398 399 0
-92 -398 0
-92 -399 0
91 -92 93 94 -95 0
92 -93 0
-93 -94 0
-91 -93 0
-93 95 0
94 409 410 0
94 409 417 418 0
-94 -409 0
-94 -410 -417 0
-94 -410 -418 0
95 -397 400 403 -404 0
-95 404 0
-95 -403 0
-95 397 0
-95 -400 0
96 97 -369 0
96 98 -369 -375 0
-96 369 0
-96 -97 375 0
-96 -97 -98 0
97 370 371 372 0
-97 -370 0
-97 -372 0
-97 -371 0
98 373 -374 0
-98 -373 0
-98 374 0
99 100 103 0
-99 -100 0
-99 -103 0
100 -101 -102 -389 0
100 -101 -102 -390 0
-100 102 0
-100 101 0
-100 389 390 0
-97 98 101 -369 -376 0
97 -101 0
-98 -101 0
-101 369 0
-101 376 0
102 375 381 -382 0
-102 382 0
-102 -381 0
-102 -375 0
-101 103 375 -381 0
101 -103 0
-103 381 0
-103 -375 0
104 -105 822 0
82 104 105 0
-104 -105 -822 0
-82 -104 105 0
105 452 -454 0
-105 -452 0
-105 454 0
106 -107 -108 -496 0
106 -107 -108 -497 0
-106 108 0
-106 107 0
-106 496 497 0
107 499 500 501 502 0
-107 -502 0
-107 -501 0
-107 -499 0
-107 -500 0
108 -493 -494 -495 498 0
-108 495 0
-108 -498 0
-108 493 0
-108 494 0
104 109 -110 0
-104 -109 0
-109 110 0
110 111 112 0
-110 -111 0
-110 -112 0
111 465 466 467 0
-111 -465 0
-111 -467 0
-111 -466 0
112 473 -475 0
-112 -473 0
-112 475 0
112 113 -311 0
113 -311 823 0
-113 311 0
-112 -113 -823 0
114 -507 514 0
-114 507 0
-114 -514 0
115 -116 -507 0
78 80 115 0
78 115 -507 0
80 115 -116 0
-80 -115 507 0
-78 -115 116 0
116 118 514 0
116 -117 118 0
116 118 507 0
-116 -118 0
-116 117 -507 -514 0
117 -515 516 0
-117 515 0
-117 -516 0
118 119 -120 0
-118 -119 0
-118 120 0
119 518 -519 -520 521 0
-119 -518 0
-119 -521 0
-119 520 0
-119 519 0
120 -507 -514 -515 516 0
-120 515 0
-120 -516 0
-120 507 0
-120 514 0
-5 121 -122 0
-5 121 130 0
5 -121 0
-121 122 -130 0
22 -57 122 -123 0
-22 -57 122 -1326 0
57 -122 0
22 -122 123 0
-22 -122 1326 0
-24 123 -1325 0
24 123 -124 0
-24 -123 1325 0
24 -123 124 0
49 124 125 129 0
49 124 125 -128 0
-49 -124 0
-124 -125 0
-124 128 -129 0
125 -127 848 -1023 0
125 126 848 1023 0
-125 -848 0
-125 127 -1023 0
-125 -126 1023 0
-28 126 -1322 0
-126 1322 0
28 -126 0
-48 127 1323 0
48 126 127 0
-48 -127 -1323 0
48 -126 -127 0
-53 127 128 0
53 -128 0
-127 -128 0
54 129 -848 0
129 -848 1324 0
-129 848 0
-54 -129 -1324 0
-59 124 130 0
123 130 -1044 0
-59 130 -1044 0
123 124 130 0
59 -123 -130 0
-124 -130 1044 0
-65 131 -132 0
-65 131 140 0
65 -131 0
-131 132 -140 0
77 -114 132 -133 0
-77 -114 132 -847 0
114 -132 0
77 -132 133 0
-77 -132 847 0
-79 133 -846 0
79 133 -134 0
-79 -133 846 0
79 -133 134 0
106 134 135 139 0
106 134 135 -138 0
-106 -134 0
-134 -135 0
-134 138 -139 0
135 -137 311 -486 0
135 136 311 486 0
-135 -311 0
-135 137 -486 0
-135 -136 486 0
-83 136 -843 0
-136 843 0
83 -136 0
-105 137 844 0
105 136 137 0
-105 -137 -844 0
105 -136 -137 0
-110 137 138 0
110 -138 0
-137 -138 0
112 139 -311 0
139 -311 845 0
-139 311 0
-112 -139 -845 0
-116 134 140 0
133 140 -507 0
-116 140 -507 0
133 134 140 0
116 -133 -140 0
-134 -140 507 0
141 142 151 -160 -285 0
141 -142 -151 -160 -285 0
-141 285 0
-141 -142 151 0
-141 160 0
-141 142 -151 0
-5 142 -143 0
-5 142 150 0
5 -142 0
-142 143 -150 0
22 -57 143 -144 0
-22 -57 143 -1299 0
57 -143 0
22 -143 144 0
-22 -143 1299 0
-24 144 -1298 0
24 144 -145 0
-24 -144 1298 0
24 -144 145 0
49 145 146 149 0
49 145 146 -148 0
-49 -145 0
-145 -146 0
-145 148 -149 0
146 -147 848 -1023 0
28 146 848 1023 0
-146 -848 0
-146 147 -1023 0
-28 -146 1023 0
-48 147 1296 0
28 48 147 0
-48 -147 -1296 0
-28 48 -147 0
-53 147 148 0
53 -148 0
-147 -148 0
54 149 -848 0
149 -848 1297 0
-149 848 0
-54 -149 -1297 0
-59 145 150 0
144 150 -1044 0
-59 150 -1044 0
144 145 150 0
59 -144 -150 0
-145 -150 1044 0
-65 151 -152 0
-65 151 159 0
65 -151 0
-151 152 -159 0
77 -114 152 -153 0
-77 -114 152 -820 0
114 -152 0
77 -152 153 0
-77 -152 820 0
-79 153 -819 0
79 153 -154 0
-79 -153 819 0
79 -153 154 0
106 154 155 158 0
106 154 155 -157 0
-106 -154 0
-154 -155 0
-154 157 -158 0
155 -156 311 -486 0
83 155 311 486 0
-155 -311 0
-155 156 -486 0
-83 -155 486 0
-105 156 817 0
83 105 156 0
-105 -156 -817 0
-83 105 -156 0
-110 156 157 0
110 -157 0
-156 -157 0
112 158 -311 0
158 -311 818 0
-158 311 0
-112 -158 -818 0
-116 154 159 0
153 159 -507 0
-116 159 -507 0
153 154 159 0
116 -153 -159 0
-154 -159 507 0
160 161 176 -190 -246 0
160 -161 -176 -190 -246 0
-160 246 0
-160 -161 176 0
-160 190 0
-160 161 -176 0
161 -162 -174 0
161 -171 -174 0
161 -172 -174 0
-161 174 0
-161 162 171 172 0
162 165 -166 0
-53 162 163 -166 0
-162 166 0
-162 -163 -165 0
53 -162 -165 0
-48 163 1306 0
48 163 164 0
-48 -163 -1306 0
48 -163 -164 0
-28 164 -1305 0
-164 1305 0
28 -164 0
54 165 -848 0
165 -848 1307 0
-165 848 0
-54 -165 -1307 0
166 167 -168 0
-166 -167 0
-166 168 0
-163 167 848 -1023 0
164 167 848 1023 0
-167 -848 0
163 -167 -1023 0
-164 -167 1023 0
49 168 169 0
-49 -168 0
-168 -169 0
-24 169 -1044 0
169 -170 -1044 0
-169 1044 0
24 -169 170 0
-22 61 170 1051 0
-60 61 170 -1051 0
-61 -170 0
60 -170 -1051 0
22 -170 1051 0
-22 -57 171 -1309 0
-171 1309 0
22 -171 0
57 -171 0
-24 172 -173 -1308 0
-172 1308 0
24 -172 0
-172 173 0
170 173 -1044 0
-173 1044 0
-170 -173 0
13 174 -175 0
-13 -174 0
-174 175 0
6 -19 175 0
-6 -175 0
19 -175 0
176 -177 -189 0
176 -186 -189 0
176 -187 -189 0
-176 189 0
-176 177 186 187 0
177 180 -181 0
-110 177 178 -181 0
-177 181 0
-177 -178 -180 0
110 -177 -180 0
-105 178 827 0
105 178 179 0
-105 -178 -827 0
105 -178 -179 0
-83 179 -826 0
-179 826 0
83 -179 0
112 180 -311 0
180 -311 828 0
-180 311 0
-112 -180 -828 0
181 182 -183 0
-181 -182 0
-181 183 0
-178 182 311 -486 0
179 182 311 486 0
-182 -311 0
178 -182 -486 0
-179 -182 486 0
106 183 184 0
-106 -183 0
-183 -184 0
-79 184 -507 0
184 -185 -507 0
-184 507 0
79 -184 185 0
-77 118 185 514 0
-117 118 185 -514 0
-118 -185 0
117 -185 -514 0
77 -185 514 0
-77 -114 186 -830 0
-186 830 0
77 -186 0
114 -186 0
-79 187 -188 -829 0
-187 829 0
79 -187 0
-187 188 0
185 188 -507 0
-188 507 0
-185 -188 0
66 -73 -74 -75 189 0
-66 -189 0
75 -189 0
74 -189 0
73 -189 0
190 191 213 223 -231 0
190 191 -213 -223 -231 0
-190 231 0
-190 -213 223 0
-190 -191 0
-190 213 -223 0
191 192 -202 0
191 -192 202 0
-191 -192 -202 0
-191 192 202 0
-175 192 193 199 -200 0
-192 200 0
-192 -199 0
175 -192 0
-192 -193 0
193 194 198 0
193 196 198 0
193 -194 196 848 0
-193 -194 -196 0
-193 194 -198 0
-193 -198 -848 0
194 -195 1023 1024 1027 0
-194 195 0
-194 -1027 0
-194 -1023 0
-194 -1024 0
195 1025 1026 0
-195 -1025 0
-195 -1026 0
-29 196 -1283 0
-29 43 196 197 0
29 -196 0
-196 -197 1283 0
-43 -196 1283 0
197 859 1320 0
-197 -859 0
-197 -1320 0
198 967 -1321 0
-196 198 -967 0
196 -198 -967 0
-198 967 1321 0
-55 199 -848 0
198 199 -848 0
-199 848 0
55 -198 -199 0
16 200 -201 0
15 200 -201 -1080 0
-200 201 0
-15 -16 -200 0
-16 -200 1080 0
49 63 201 0
49 62 201 0
-49 -201 0
-62 -63 -201 0
202 203 -209 -212 0
202 203 -209 311 0
-202 209 0
-202 -203 0
-202 212 -311 0
203 204 208 0
203 206 208 0
203 -204 206 311 0
-203 -204 -206 0
-203 204 -208 0
-203 -208 -311 0
204 -205 486 487 490 0
-204 205 0
-204 -490 0
-204 -486 0
-204 -487 0
205 488 489 0
-205 -488 0
-205 -489 0
-88 206 -804 0
84 -88 206 207 0
88 -206 0
-206 -207 804 0
-84 -206 804 0
207 322 841 0
-207 -322 0
-207 -841 0
208 430 -842 0
-206 208 -430 0
206 -208 -430 0
-208 430 842 0
-72 209 -210 0
72 -209 0
-209 210 0
69 210 -211 0
68 210 -211 -543 0
-210 211 0
-68 -69 -210 0
-69 -210 543 0
106 120 211 0
106 119 211 0
-106 -211 0
-119 -120 -211 0
111 -208 212 0
-111 -212 0
208 -212 0
-20 213 214 -221 0
20 -213 0
-213 -214 0
-213 221 0
194 214 -215 0
214 219 220 0
214 -215 219 0
-214 215 -220 0
-194 -214 -219 0
-214 215 -219 0
215 216 -967 0
-29 215 -218 967 0
-215 -216 -967 0
29 -215 967 0
-215 218 967 0
-29 216 -217 0
29 -216 0
-216 217 0
217 -1283 -1285 0
43 217 1283 0
217 -1283 -1289 0
-43 -217 1283 0
-217 -1283 1285 1289 0
218 -1283 1285 1291 0
-218 1283 0
-218 -1291 0
-218 -1285 0
194 219 848 0
-216 219 848 0
-219 -848 0
-194 216 -219 0
55 220 -848 0
-220 848 0
-55 -220 0
6 -200 221 -222 0
200 -221 0
-221 222 0
-6 -221 0
222 -1138 -1167 -1196 0
-222 1138 0
-222 1167 0
-222 1196 0
-209 223 224 0
209 -223 0
-223 -224 0
204 224 -225 0
224 229 230 0
224 -225 229 0
-224 225 -230 0
-204 -224 -229 0
-224 225 -229 0
225 226 -430 0
-88 225 -228 430 0
-225 -226 -430 0
88 -225 430 0
-225 228 430 0
-88 226 -227 0
88 -226 0
-226 227 0
227 -804 -806 0
84 227 804 0
227 -804 -810 0
-84 -227 804 0
-227 -804 806 810 0
228 -804 806 812 0
-228 804 0
-228 -812 0
-228 -806 0
204 229 311 0
-226 229 311 0
-229 -311 0
-204 226 -229 0
111 230 -311 0
-230 311 0
-111 -230 0
231 232 237 240 -241 0
231 -232 -237 240 -241 0
-231 -240 0
-231 232 -237 0
-231 241 0
-231 -232 237 0
-88 -210 232 233 -234 0
-232 234 0
88 -232 0
210 -232 0
-232 -233 0
-111 233 -311 0
-233 311 0
111 -233 0
234 -235 -236 -804 806 0
-234 236 0
-234 804 0
-234 235 0
-234 -806 0
235 -572 -601 -746 -775 0
-235 775 0
-235 572 0
-235 746 0
-235 601 0
-74 236 -688 -717 0
-236 688 0
-236 717 0
74 -236 0
-29 -221 237 238 -239 0
-237 239 0
29 -237 0
221 -237 0
-237 -238 0
-55 238 -848 0
-238 848 0
55 -238 0
-20 239 -1283 1285 0
-239 1283 0
-239 -1285 0
20 -239 0
-8 -11 240 0
8 -240 0
11 -240 0
17 241 -242 0
15 241 -242 0
18 241 -242 0
-241 242 0
-15 -17 -18 -241 0
30 37 242 -243 0
-36 37 242 -243 0
-242 243 0
-37 -242 0
-30 36 -242 0
43 -201 238 243 -244 0
201 -243 0
-238 -243 0
-43 -243 0
-243 244 0
-19 244 245 -852 0
-19 244 245 853 0
19 -244 0
-244 -245 0
-244 852 -853 0
245 850 851 0
-245 -850 0
-245 -851 0
246 247 256 -265 -275 0
246 -247 -256 -265 -275 0
246 247 256 265 275 0
246 -247 -256 265 275 0
-246 247 -256 0
-246 -247 256 0
-246 265 -275 0
-246 -265 275 0
-189 247 -248 0
-189 247 -255 0
-189 247 -254 0
189 -247 0
-247 248 254 255 0
248 251 -252 0
-110 248 249 -252 0
-248 252 0
-248 -249 -251 0
110 -248 -251 0
-105 249 836 0
105 249 250 0
-105 -249 -836 0
105 -249 -250 0
-83 250 -835 0
-250 835 0
83 -250 0
112 251 -311 0
251 -311 837 0
-251 311 0
-112 -251 -837 0
-183 252 253 0
183 -252 0
-252 -253 0
-249 253 311 -486 0
250 253 311 486 0
-253 -311 0
249 -253 -486 0
-250 -253 486 0
-77 -114 254 -839 0
-254 839 0
77 -254 0
114 -254 0
-79 -188 255 -838 0
-255 838 0
79 -255 0
188 -255 0
13 -19 256 257 -1109 0
19 -256 0
-256 -257 0
-256 1109 0
-13 -256 0
168 257 -263 0
257 -258 -263 0
257 -262 -263 0
-257 263 0
-168 -257 258 262 0
258 259 -848 1316 0
54 258 259 -848 0
-258 848 0
-258 -259 0
-54 -258 -1316 0
-53 259 260 0
53 -259 0
-259 -260 0
-48 260 1315 0
48 260 261 0
-48 -260 -1315 0
48 -260 -261 0
-28 261 -1314 0
-261 1314 0
28 -261 0
-260 262 848 -1023 0
261 262 848 1023 0
-262 -848 0
260 -262 -1023 0
-261 -262 1023 0
22 263 264 0
57 263 264 0
263 264 1318 0
-263 -264 0
-22 -57 -263 -1318 0
-24 -173 264 -1317 0
-264 1317 0
24 -264 0
173 -264 0
169 -174 265 266 0
-174 265 266 274 0
174 -265 0
-265 -266 0
-169 -265 -274 0
266 268 1044 0
24 266 267 268 0
-266 -268 0
-266 -267 -1044 0
-24 -266 -1044 0
-22 267 1051 -1313 0
22 -267 0
-267 1313 0
-267 -1051 0
49 268 269 273 0
49 268 269 -272 0
-49 -268 0
-268 -269 0
-268 272 -273 0
269 -271 848 -1023 0
269 270 848 1023 0
-269 -848 0
-269 271 -1023 0
-269 -270 1023 0
-28 270 -852 0
-270 852 0
28 -270 0
-48 271 1310 0
48 270 271 0
-48 -271 -1310 0
48 -270 -271 0
-53 271 272 0
53 -272 0
-271 -272 0
54 273 -848 0
273 -848 1311 0
-273 848 0
-54 -273 -1311 0
-170 267 274 0
267 274 1312 0
-267 -274 0
170 -274 -1312 0
-65 184 275 276 0
-65 275 276 284 0
65 -275 0
-275 -276 0
-184 -275 -284 0
276 278 507 0
79 276 277 278 0
-276 -278 0
-276 -277 -507 0
-79 -276 -507 0
-77 277 514 -834 0
77 -277 0
-277 834 0
-277 -514 0
106 278 279 283 0
106 278 279 -282 0
-106 -278 0
-278 -279 0
-278 282 -283 0
279 -281 311 -486 0
279 280 311 486 0
-279 -311 0
-279 281 -486 0
-279 -280 486 0
-83 280 -315 0
-280 315 0
83 -280 0
-105 281 831 0
105 280 281 0
-105 -281 -831 0
105 -280 -281 0
-110 281 282 0
110 -282 0
-281 -282 0
112 283 -311 0
283 -311 832 0
-283 311 0
-112 -283 -832 0
-185 277 284 0
277 284 833 0
-277 -284 0
185 -284 -833 0
131 285 286 296 0
-121 285 -286 -296 0
-121 285 286 296 0
131 285 -286 -296 0
-285 286 -296 0
-285 -286 296 0
121 -131 -285 0
-5 286 -287 0
-5 286 295 0
5 -286 0
-286 287 -295 0
22 -57 287 -288 0
-22 -57 287 -1295 0
57 -287 0
22 -287 288 0
-22 -287 1295 0
-24 288 -1294 0
24 288 -289 0
-24 -288 1294 0
24 -288 289 0
49 289 290 294 0
49 289 290 -293 0
-49 -289 0
-289 -290 0
-289 293 -294 0
290 291 -848 1293 0
54 290 291 -848 0
-290 848 0
-290 -291 0
-54 -290 -1293 0
-53 291 292 0
53 -291 0
-291 -292 0
28 48 292 0
-48 292 1292 0
48 292 853 0
-48 -292 -1292 0
-28 48 -292 -853 0
-28 48 293 -853 0
-28 293 -853 1023 0
28 -293 0
-293 853 0
-48 -293 -1023 0
294 848 1292 0
294 848 1023 0
48 294 848 0
-294 -848 0
-48 -294 -1023 -1292 0
-59 289 295 0
288 295 -1044 0
-59 295 -1044 0
288 289 295 0
59 -288 -295 0
-289 -295 1044 0
-65 296 -297 0
-65 296 305 0
65 -296 0
-296 297 -305 0
77 -114 297 -298 0
-77 -114 297 -816 0
114 -297 0
77 -297 298 0
-77 -297 816 0
-79 298 -815 0
79 298 -299 0
-79 -298 815 0
79 -298 299 0
106 299 300 304 0
106 299 300 -303 0
-106 -299 0
-299 -300 0
-299 303 -304 0
300 301 -311 814 0
112 300 301 -311 0
-300 311 0
-300 -301 0
-112 -300 -814 0
-110 301 302 0
110 -301 0
-301 -302 0
83 105 302 0
-105 302 813 0
105 302 316 0
-105 -302 -813 0
-83 105 -302 -316 0
-83 105 303 -316 0
-83 303 -316 486 0
83 -303 0
-303 316 0
-105 -303 -486 0
304 311 813 0
304 311 486 0
105 304 311 0
-304 -311 0
-105 -304 -486 -813 0
-116 299 305 0
298 305 -507 0
-116 305 -507 0
298 299 305 0
116 -298 -305 0
-299 -305 507 0
-68 -70 -71 306 0
68 -306 0
70 -306 0
71 -306 0
-96 307 -308 0
-100 307 -308 0
-103 307 -308 0
-307 308 0
96 100 103 -307 0
84 89 -211 308 -309 0
-84 -308 0
-308 309 0
211 -308 0
-89 -308 0
233 -235 -236 309 -310 0
-233 -309 0
-309 310 0
236 -309 0
235 -309 0
310 -314 -315 0
310 -313 316 0
310 -313 -315 0
310 -314 316 0
-310 315 -316 0
-310 313 314 0
1 2 0
-1 -2 0
1327 0

